2 30
281 288 
0 83 73 101 91 57 96 1
1 73 63 50 40 91 81 2
2 35 25 78 68 48 85 1
3 50 40 66 56 11 95 1
4 89 79 68 58 42 92 1
5 107 97 108 98 23 78 2
6 102 92 57 47 42 18 2
7 71 61 56 46 31 85 2
8 75 65 18 8 27 9 2
9 17 7 85 75 71 96 2
10 105 95 59 49 12 55 1
11 12 2 21 11 26 72 2
12 76 66 103 93 38 73 1
13 49 39 97 87 45 92 2
14 87 77 25 15 46 68 1
15 43 33 75 65 93 19 2
16 76 66 43 33 43 36 2
17 90 80 42 32 46 10 2
18 13 3 68 58 39 16 1
19 82 72 42 32 50 26 1
20 99 89 37 27 44 11 1
21 22 12 15 5 72 59 1
22 26 16 37 27 26 49 1
23 50 40 15 5 21 88 2
24 19 9 70 60 46 31 2
25 14 4 75 65 99 94 1
26 15 5 54 44 86 86 1
27 29 19 70 60 80 17 2
28 60 50 94 84 73 25 1
29 38 28 11 1 43 59 2
